0 47 2 17 10 8 18 12 41 19 30 40 14 33 4
29 0 24 40 18 1 6 36 12 39 36 20 20 12 31
12 24 0 15 38 21 42 13 48 42 36 21 7 25 2
41 31 26 0 17 37 25 48 27 24 28 42 47 1 28
3 38 31 23 0 18 44 7 6 13 42 32 3 19 31
22 11 24 33 1 0 27 40 27 31 22 21 16 49 28
47 26 47 49 28 15 0 7 48 1 47 10 3 36 20
22 40 38 20 17 19 26 0 50 39 30 29 9 13 36
29 14 3 49 14 26 49 35 0 1 3 7 36 25 38
16 19 10 43 6 17 5 4 38 0 16 41 25 19 4
32 37 13 49 18 4 42 7 35 45 0 25 41 38 29
20 11 10 20 33 42 8 2 30 22 43 0 3 30 5
8 34 2 25 39 47 2 21 13 26 20 45 0 49 25
19 24 27 4 16 13 28 8 49 38 6 3 4 0 49
48 8 15 2 5 50 8 44 6 2 7 12 16 46 0
